data/instances/vrp_files/train_16.vrp
NAME : 16
COMMENT : Generated instance No. 16
TYPE : CVRP
DIMENSION : 21
EDGE_WEIGHT_TYPE : EUC_2D
CAPACITY : 30
NODE_COORD_SECTION
 1 476 663
 2 257 139
 3 834 984
 4 525 171
 5 272 18
 6 914 117
 7 576 274
 8 554 651
 9 829 206
 10 10 136
 11 900 873
 12 597 600
 13 665 175
 14 914 418
 15 383 518
 16 46 166
 17 738 82
 18 603 245
 19 389 288
 20 355 719
 21 297 566
DEMAND_SECTION
1 0
2 6
3 6
4 5
5 8
6 1
7 10
8 4
9 4
10 3
11 3
12 4
13 1
14 2
15 9
16 10
17 2
18 5
19 9
20 9
21 8
DEPOT_SECTION
 1
 -1
EOF